n = 100;
C = 543;
w = [106,674,34,33,694,902,628,767,415,704,757,260,170,230,836,292,630,398,920,894,15,928,81,987,500,729,775,804,417,593,480,177,389,310,959,83,493,551,312,499,439,641,205,528,536,102,651,221,831,217,590,888,960,931,393,117,714,609,942,41,545,892,492,479,236,880,164,470,384,949,844,833,635,825,332,822,594,892,364,648,180,922,251,933,797,45,865,816,348,272,398,760,365,285,841,831,376,920,402,484];
p = [92,636,48,4,754,875,553,797,439,750,736,274,86,171,915,389,551,442,924,930,-14,895,-6,1009,433,811,848,873,340,572,531,177,475,321,1050,-10,505,640,391,514,468,560,207,455,455,185,592,225,866,256,679,873,861,853,327,164,810,550,1014,28,489,795,432,482,322,809,195,379,384,1032,860,801,593,758,341,887,535,906,390,551,212,867,152,965,832,119,804,786,418,278,356,746,357,341,766,783,473,997,341,404];
